1 -1 -2 0
1 1 3 0
1 1 4 0
1 -1 -5 0
1 -1 6 0
1 1 7 0
1 2 3 0
1 2 -4 0
1 2 -1 0
1 2 7 0
1 -8 -9 0
1 -8 10 0
1 8 -3 0
1 -8 4 0
1 -8 11 0
1 -8 12 0
1 -8 5 0
1 -8 7 0
1 -13 9 0
1 13 -10 0
1 13 -14 0
1 -13 -3 0
1 13 -4 0
1 -13 -11 0
1 13 -15 0
1 -13 5 0
1 -13 -7 0
1 4 16 0
1 -4 17 0
1 -4 -18 0
1 -4 13 0
1 4 -2 0
1 4 19 0
1 4 20 0
1 4 -21 0
1 4 -22 0
1 -4 -8 0
1 4 1 0
1 4 -7 0
1 -7 -23 0
1 7 -16 0
1 7 17 0
1 7 -18 0
1 7 -13 0
1 7 2 0
1 -7 4 0
1 7 -20 0
1 7 -21 0
1 7 -22 0
1 7 -1 0
1 3 -16 0
1 -3 24 0
1 -3 -25 0
1 3 -13 0
1 -3 -2 0
1 -3 -26 0
1 3 27 0
1 -3 28 0
1 3 -8 0
1 -3 -5 0
1 5 -16 0
1 -5 -24 0
1 -5 -25 0
1 -5 13 0
1 5 -2 0
1 5 3 0
1 -5 -20 0
1 -5 27 0
1 -5 -28 0
1 -5 8 0
1 5 -1 0
1 -5 -29 0
1 -22 -9 0
1 22 10 0
1 22 -18 0
1 -22 -4 0
1 22 -11 0
1 -22 -15 0
1 -22 -28 0
1 22 7 0
1 18 9 0
1 18 -10 0
1 18 25 0
1 -18 -11 0
1 -18 15 0
1 -18 22 0
1 18 -7 0
1 21 -9 0
1 -21 -10 0
1 21 17 0
1 21 -30 0
1 -21 -31 0
1 -21 4 0
1 21 11 0
1 -21 15 0
1 21 32 0
1 21 -27 0
1 21 33 0
1 21 -7 0
1 -17 9 0
1 17 10 0
1 -17 30 0
1 -17 -24 0
1 17 -31 0
1 -17 4 0
1 17 -15 0
1 -17 21 0
1 -17 32 0
1 17 33 0
1 -17 7 0
1 15 34 0
1 15 35 0
1 15 10 0
1 15 17 0
1 -15 -18 0
1 15 13 0
1 15 -36 0
1 15 -37 0
1 15 38 0
1 -15 -21 0
1 -15 -22 0
1 -15 8 0
1 15 -39 0
1 10 -34 0
1 -10 -35 0
1 10 -40 0
1 -10 17 0
1 -10 -18 0
1 -10 13 0
1 10 -36 0
1 10 -37 0
1 -10 15 0
1 10 21 0
1 -10 22 0
1 10 8 0
1 10 -39 0
1 -11 9 0
1 11 -41 0
1 11 -16 0
1 11 -17 0
1 11 -18 0
1 -11 -13 0
1 11 -36 0
1 11 -42 0
1 11 -20 0
1 11 -21 0
1 11 -22 0
1 11 8 0
1 11 39 0
1 -9 -43 0
1 -9 16 0
1 9 17 0
1 9 -18 0
1 9 -13 0
1 -9 36 0
1 -9 11 0
1 -9 44 0
1 -9 20 0
1 -9 -21 0
1 9 -22 0
1 -9 -8 0
1 -9 -39 0
1 37 -35 0
1 37 10 0
1 -37 30 0
1 37 31 0
1 37 15 0
1 37 20 0
1 37 -32 0
1 -37 33 0
1 35 -10 0
1 -35 16 0
1 35 30 0
1 35 -31 0
1 -35 37 0
1 35 15 0
1 35 32 0
1 -45 34 0
1 -45 -10 0
1 45 30 0
1 45 -31 0
1 -45 44 0
1 -45 15 0
1 45 32 0
1 45 33 0
1 34 -41 0
1 -34 10 0
1 34 -31 0
1 34 45 0
1 -34 15 0
1 -34 32 0
1 -34 33 0
1 -33 -34 0
1 -33 17 0
1 -33 -31 0
1 -33 -46 0
1 33 45 0
1 33 -37 0
1 33 21 0
1 33 47 0
1 33 48 0
1 -31 -35 0
1 -31 17 0
1 31 49 0
1 -31 46 0
1 31 -37 0
1 31 -21 0
1 31 33 0
1 -31 48 0
1 32 -34 0
1 -32 -35 0
1 32 -17 0
1 32 30 0
1 -32 -46 0
1 32 50 0
1 -32 -36 0
1 32 45 0
1 32 37 0
1 -32 51 0
1 32 48 0
1 -32 -52 0
1 -32 -39 0
1 30 -35 0
1 -30 17 0
1 30 -46 0
1 -30 -50 0
1 30 36 0
1 30 45 0
1 30 -37 0
1 -30 -21 0
1 30 -32 0
1 -30 -48 0
1 30 -52 0
1 -30 -39 0
1 -6 53 0
1 6 54 0
1 6 -55 0
1 6 56 0
1 6 1 0
1 -54 53 0
1 -54 57 0
1 -54 2 0
1 -54 -55 0
1 54 56 0
1 -54 6 0
1 -12 53 0
1 12 -57 0
1 12 -58 0
1 -12 59 0
1 12 -14 0
1 -12 -55 0
1 -12 -56 0
1 -12 -60 0
1 -12 61 0
1 -12 8 0
1 14 -53 0
1 14 58 0
1 -14 59 0
1 -14 -13 0
1 14 56 0
1 -14 60 0
1 14 61 0
1 -14 -12 0
1 57 -24 0
1 57 -62 0
1 57 -25 0
1 -57 14 0
1 -57 54 0
1 57 -56 0
1 57 -27 0
1 -57 28 0
1 57 -12 0
1 -57 -6 0
1 -56 -57 0
1 -56 -24 0
1 -56 -25 0
1 56 -14 0
1 -56 -54 0
1 -56 63 0
1 56 -27 0
1 -56 12 0
1 -56 -6 0
1 53 -64 0
1 53 -54 0
1 -53 -12 0
1 -53 6 0
1 55 -53 0
1 -55 -14 0
1 55 -54 0
1 55 -65 0
1 55 6 0
1 -28 57 0
1 -28 25 0
1 -28 -59 0
1 28 -60 0
1 28 -61 0
1 -28 22 0
1 -28 5 0
1 25 57 0
1 25 -58 0
1 -25 18 0
1 25 59 0
1 -25 -3 0
1 25 -56 0
1 25 -60 0
1 -25 61 0
1 25 -28 0
1 25 -5 0
1 -27 -57 0
1 27 -24 0
1 27 58 0
1 -27 59 0
1 27 -66 0
1 27 67 0
1 27 3 0
1 27 -56 0
1 -27 60 0
1 -27 21 0
1 27 61 0
1 27 -68 0
1 -27 69 0
1 27 5 0
1 24 -61 0
1 24 -17 0
1 24 -58 0
1 -24 59 0
1 24 -66 0
1 -24 67 0
1 24 3 0
1 -24 56 0
1 -24 60 0
1 24 -27 0
1 -24 -68 0
1 -24 69 0
1 -24 -5 0
1 59 -70 0
1 59 -61 0
1 -59 41 0
1 59 16 0
1 -59 -24 0
1 -59 25 0
1 -59 -71 0
1 -59 -14 0
1 59 -72 0
1 59 44 0
1 -59 20 0
1 59 27 0
1 59 -28 0
1 -59 12 0
1 61 70 0
1 61 24 0
1 61 -25 0
1 -61 -59 0
1 -61 14 0
1 -61 -72 0
1 61 -20 0
1 -61 -27 0
1 -61 -73 0
1 -61 -28 0
1 61 12 0
1 -58 70 0
1 58 -24 0
1 58 74 0
1 58 25 0
1 58 -14 0
1 -58 -72 0
1 -58 60 0
1 58 27 0
1 58 28 0
1 58 -12 0
1 60 70 0
1 60 24 0
1 60 58 0
1 60 25 0
1 -60 72 0
1 60 -27 0
1 60 -75 0
1 -60 28 0
1 60 -12 0
1 20 9 0
1 -20 66 0
1 20 -67 0
1 -20 3 0
1 20 4 0
1 -20 -68 0
1 -20 69 0
1 -20 5 0
1 -20 7 0
1 16 -9 0
1 16 35 0
1 16 59 0
1 16 67 0
1 16 -3 0
1 -16 -4 0
1 16 11 0
1 -16 20 0
1 16 -61 0
1 16 -68 0
1 16 -69 0
1 16 -5 0
1 -16 7 0
1 -44 -23 0
1 44 9 0
1 -44 41 0
1 44 -59 0
1 -44 66 0
1 -44 67 0
1 -44 26 0
1 44 19 0
1 -44 -11 0
1 -44 -45 0
1 44 -61 0
1 -44 -68 0
1 44 -69 0
1 -44 -29 0
1 -41 23 0
1 -41 34 0
1 41 9 0
1 -41 66 0
1 41 -67 0
1 41 -26 0
1 41 -19 0
1 -41 11 0
1 -41 -44 0
1 -41 -61 0
1 41 68 0
1 41 69 0
1 -41 29 0
1 67 41 0
1 67 -16 0
1 -67 -24 0
1 -67 -76 0
1 -67 50 0
1 -67 77 0
1 67 36 0
1 67 44 0
1 -67 -20 0
1 67 27 0
1 67 69 0
1 67 78 0
1 -67 52 0
1 67 -39 0
1 69 -41 0
1 69 -16 0
1 69 -24 0
1 -69 -67 0
1 -69 76 0
1 69 -50 0
1 69 -36 0
1 69 79 0
1 69 44 0
1 69 20 0
1 69 -27 0
1 -69 -78 0
1 69 52 0
1 -66 -70 0
1 66 -41 0
1 66 -16 0
1 66 -24 0
1 66 76 0
1 66 80 0
1 -66 -72 0
1 66 44 0
1 -66 20 0
1 66 27 0
1 -66 78 0
1 -66 -81 0
1 68 70 0
1 -68 -41 0
1 -68 16 0
1 -68 -24 0
1 -68 66 0
1 -68 76 0
1 -68 80 0
1 68 -72 0
1 68 20 0
1 -68 -27 0
1 68 82 0
1 68 -78 0
1 36 23 0
1 36 -9 0
1 -36 -10 0
1 -36 -30 0
1 -36 -67 0
1 36 26 0
1 -36 72 0
1 -36 -11 0
1 36 19 0
1 36 15 0
1 36 -69 0
1 -36 29 0
1 36 39 0
1 -39 -70 0
1 39 9 0
1 -39 23 0
1 39 10 0
1 -39 30 0
1 39 67 0
1 -39 -26 0
1 -39 36 0
1 -39 -19 0
1 39 -11 0
1 -39 15 0
1 39 -69 0
1 39 -29 0
1 -50 23 0
1 50 -43 0
1 50 -40 0
1 -50 -30 0
1 50 67 0
1 -50 80 0
1 -50 19 0
1 -50 42 0
1 50 38 0
1 -50 -32 0
1 -50 52 0
1 50 -29 0
1 52 -23 0
1 52 43 0
1 -52 40 0
1 52 30 0
1 -52 -67 0
1 52 -50 0
1 52 26 0
1 52 -19 0
1 52 38 0
1 52 -32 0
1 52 -29 0
1 52 69 0
1 -52 81 0
1 19 23 0
1 19 41 0
1 -19 -83 0
1 19 84 0
1 -19 46 0
1 -19 50 0
1 19 -36 0
1 -19 -4 0
1 -19 44 0
1 19 85 0
1 -19 86 0
1 19 -48 0
1 -19 52 0
1 19 39 0
1 23 41 0
1 -23 83 0
1 -23 -84 0
1 23 -46 0
1 23 -36 0
1 23 44 0
1 23 7 0
1 -23 -85 0
1 23 86 0
1 -23 48 0
1 -23 -52 0
1 23 39 0
1 -26 -41 0
1 -26 83 0
1 -26 -87 0
1 -26 -76 0
1 -26 -3 0
1 -26 44 0
1 26 -88 0
1 -26 -78 0
1 26 52 0
1 26 29 0
1 26 39 0
1 -29 41 0
1 29 -83 0
1 29 -76 0
1 -29 26 0
1 -29 -36 0
1 29 -44 0
1 -29 5 0
1 29 -85 0
1 29 -78 0
1 29 52 0
1 -29 39 0
1 -46 23 0
1 -46 -43 0
1 -46 -40 0
1 -46 -31 0
1 46 -76 0
1 -46 -19 0
1 -46 42 0
1 -46 -38 0
1 -46 32 0
1 -46 33 0
1 46 -48 0
1 48 -23 0
1 -48 43 0
1 -48 30 0
1 -48 31 0
1 -48 46 0
1 -48 -19 0
1 48 -42 0
1 48 38 0
1 48 32 0
1 48 -33 0
1 -84 -23 0
1 84 43 0
1 84 40 0
1 84 -89 0
1 84 -86 0
1 -84 49 0
1 84 -87 0
1 84 -19 0
1 -84 -42 0
1 84 38 0
1 84 -51 0
1 -84 47 0
1 86 -23 0
1 -86 -43 0
1 86 -40 0
1 -86 89 0
1 86 49 0
1 86 -84 0
1 -86 -19 0
1 -86 -42 0
1 -86 -38 0
1 -86 -51 0
1 -86 47 0
1 86 88 0
1 38 -40 0
1 38 -90 0
1 -38 -91 0
1 38 46 0
1 -38 -50 0
1 -38 -15 0
1 -38 -92 0
1 -38 93 0
1 -38 -86 0
1 -38 -48 0
1 -38 -52 0
1 -40 10 0
1 40 -91 0
1 40 -84 0
1 40 50 0
1 40 92 0
1 40 -38 0
1 -40 -93 0
1 40 86 0
1 -40 48 0
1 42 -43 0
1 42 -94 0
1 -42 84 0
1 42 46 0
1 -42 -11 0
1 -42 95 0
1 42 -48 0
1 42 -52 0
1 -43 9 0
1 -43 -94 0
1 43 83 0
1 -43 46 0
1 -43 50 0
1 -43 42 0
1 43 95 0
1 43 85 0
1 43 -86 0
1 43 48 0
1 -43 52 0
1 -91 40 0
1 -91 -89 0
1 -91 49 0
1 -91 83 0
1 91 51 0
1 -91 38 0
1 91 93 0
1 93 -40 0
1 93 -91 0
1 -93 -49 0
1 -93 51 0
1 -93 -85 0
1 93 47 0
1 -90 -40 0
1 -90 89 0
1 -90 -94 0
1 -90 -49 0
1 -90 -38 0
1 -90 -51 0
1 -90 47 0
1 -92 40 0
1 -92 90 0
1 92 49 0
1 -92 -38 0
1 92 95 0
1 92 51 0
1 92 -47 0
1 47 91 0
1 -47 49 0
1 47 84 0
1 47 92 0
1 47 -93 0
1 -47 33 0
1 47 86 0
1 -49 -90 0
1 -49 -91 0
1 49 84 0
1 -49 -92 0
1 -49 93 0
1 -49 86 0
1 -49 -47 0
1 -51 -90 0
1 51 -89 0
1 51 91 0
1 -51 84 0
1 51 92 0
1 51 32 0
1 51 93 0
1 -51 86 0
1 89 30 0
1 -89 90 0
1 89 91 0
1 -89 84 0
1 89 51 0
1 -89 92 0
1 89 93 0
1 -89 86 0
1 72 -70 0
1 -72 -64 0
1 -72 -62 0
1 72 -58 0
1 72 -59 0
1 -72 -61 0
1 -72 68 0
1 70 64 0
1 70 62 0
1 70 58 0
1 -70 59 0
1 70 66 0
1 70 72 0
1 70 65 0
1 -70 63 0
1 70 -60 0
1 -70 -61 0
1 70 68 0
1 -70 39 0
1 80 -64 0
1 80 62 0
1 -80 -74 0
1 80 71 0
1 -80 66 0
1 80 50 0
1 80 -65 0
1 -80 -63 0
1 -80 -75 0
1 -80 73 0
1 80 68 0
1 80 81 0
1 -81 -64 0
1 -81 -62 0
1 -81 74 0
1 -81 -80 0
1 -81 -65 0
1 81 63 0
1 -81 73 0
1 81 68 0
1 -81 52 0
1 -62 70 0
1 62 57 0
1 62 -87 0
1 -62 -76 0
1 -62 -72 0
1 -62 -63 0
1 -62 -88 0
1 62 -78 0
1 62 -81 0
1 63 -70 0
1 63 -62 0
1 63 87 0
1 63 76 0
1 63 -80 0
1 -63 -72 0
1 63 -56 0
1 -63 -88 0
1 63 78 0
1 63 81 0
1 -64 -70 0
1 -64 53 0
1 -64 -80 0
1 -64 -72 0
1 64 81 0
1 65 70 0
1 65 -64 0
1 -65 80 0
1 65 -72 0
1 -65 -55 0
1 65 -81 0
1 -76 -62 0
1 76 74 0
1 76 -71 0
1 76 66 0
1 76 -46 0
1 76 -67 0
1 -76 -26 0
1 -76 -75 0
1 -76 73 0
1 76 68 0
1 76 69 0
1 76 78 0
1 76 29 0
1 -78 62 0
1 78 74 0
1 -78 66 0
1 78 69 0
1 78 67 0
1 78 76 0
1 78 -26 0
1 78 75 0
1 -78 -73 0
1 -78 -68 0
1 -78 -48 0
1 78 29 0
1 -87 -62 0
1 87 82 0
1 -87 -74 0
1 -87 71 0
1 -87 84 0
1 87 -96 0
1 -87 77 0
1 87 26 0
1 -87 -63 0
1 -87 -75 0
1 87 -73 0
1 87 88 0
1 -87 -29 0
1 88 62 0
1 -88 74 0
1 -88 71 0
1 -88 -96 0
1 -88 -77 0
1 88 -26 0
1 88 -63 0
1 88 75 0
1 -88 86 0
1 -88 82 0
1 88 79 0
1 88 29 0
1 -71 -73 0
1 71 94 0
1 71 -59 0
1 -71 -83 0
1 -71 87 0
1 -71 76 0
1 71 80 0
1 -71 -95 0
1 -71 85 0
1 71 -88 0
1 71 -78 0
1 71 -81 0
1 73 -94 0
1 -73 83 0
1 73 71 0
1 -73 -87 0
1 73 76 0
1 73 80 0
1 73 95 0
1 73 -61 0
1 -73 85 0
1 -73 88 0
1 -73 78 0
1 73 -81 0
1 -74 -58 0
1 -74 87 0
1 74 -76 0
1 74 -80 0
1 -74 -75 0
1 -74 88 0
1 74 -81 0
1 -75 -74 0
1 75 -87 0
1 -75 76 0
1 75 -80 0
1 -75 -60 0
1 75 78 0
1 75 81 0
1 83 -23 0
1 -83 -43 0
1 83 -73 0
1 83 91 0
1 -83 -71 0
1 -83 96 0
1 83 77 0
1 83 -26 0
1 -83 19 0
1 -83 -42 0
1 83 -85 0
1 -83 -82 0
1 -83 -79 0
1 83 -29 0
1 -85 -23 0
1 85 43 0
1 -85 83 0
1 85 71 0
1 -85 96 0
1 85 -77 0
1 -85 26 0
1 85 -19 0
1 -85 93 0
1 -85 73 0
1 85 82 0
1 85 -79 0
1 -85 -29 0
1 94 -43 0
1 -94 90 0
1 94 71 0
1 94 -96 0
1 -94 -77 0
1 94 -42 0
1 -94 -95 0
1 -94 73 0
1 94 -82 0
1 94 79 0
1 95 43 0
1 95 -94 0
1 95 -71 0
1 95 96 0
1 95 77 0
1 95 -42 0
1 95 92 0
1 -95 -73 0
1 -95 82 0
1 95 -79 0
1 77 -94 0
1 -77 -83 0
1 -77 -87 0
1 77 67 0
1 77 95 0
1 -77 -85 0
1 77 88 0
1 -77 79 0
1 79 -83 0
1 79 87 0
1 -79 77 0
1 -79 95 0
1 79 -85 0
1 79 -88 0
1 -79 69 0
1 96 94 0
1 -96 -82 0
1 96 -83 0
1 -96 66 0
1 -96 87 0
1 -96 -95 0
1 82 -94 0
1 82 -87 0
1 82 96 0
1 -82 95 0
1 -82 -85 0
1 82 68 0
1 82 88 0
